# Solution for model count
# Objective value = 10
z#1 0
z#2 0
z#3 0
z#4 1
z#5 1
z#6 1
z#7 1
z#8 0
z#9 1
z#10 1
z#11 0
z#12 1
z#13 0
z#14 0
z#15 0
z#16 1
z#17 0
z#18 0
z#19 0
z#20 1
z#21 0
z#22 1
z#23 0
z#24 0
x#24 0
x#23 0
x#22 3
x#21 0
x#20 1453
x#19 0
x#18 0
x#17 0
x#16 2119
x#15 0
x#14 0
x#13 0
x#12 54
x#11 0
x#10 634
x#9 405
x#8 0
x#7 193
x#6 955
x#5 1340
x#4 2844
x#3 0
x#2 0
x#1 0
